1981
75
25
48
609
1111
363
458
132
235
455
138
270
1190
88
152
1111
1817
138
19
61
105
161
24
18
94
117
50
771
1809
136
749
120
306
205
41
424
40
522
23
60
161
697
190
240
1183
292
253
64
79
169
386
23
0
0
963
2465
131
78
24
45
23
40
281
267
475
956
250
50
58
1264
23
108
328
105
1321
102
73
565
141
522
490
212
1768
1288
33
55
1934
197
816
0
813
123
78
37
96
1818
783
302
587
